34835
0 1 0 0 1 0 1 1 1 0 0 1 1 1 0 0 0 0 1 1 1 1 0 0 0 1 0 1 1 1 
7 19 21 18 1 12 21 11 7 11 4 28 13 1 6 7 1 20 18 27 25 27 1 27 20 7 27 19 29 1 19 19 4 21 18 12 8 8 27 18 7 8 6 4 8 19 13 21 19 19 27 27 18 27 8 6 25 8 7 25 29 28 7 20 8 25 28 19 6 25 7 12 6 20 13 13 20 13 8 27 20 28 4 25 29 13 6 13 18 7 28 6 25 25 28 13 11 6 28 28 6 21 25 7 4 11 4 27 18 1 19 29 18 12 12 8 11 25 28 8 4 11 28 6 4 18 21 12 4 19 11 21 25 20 1 8 1 13 28 19 12 18 12 25 25 28 18 21 18 25 27 6 13 28 8 11 21 21 20 13 13 11 20 11 1 11 1 4 1 21 1 20 19 20 4 28 11 20 29 13 21 21 27 6 12 8 12 1 27 27 21 21 6 4 7 12 7 21 20 19 
